12
0 7 44 10 34 69 72 43 24 50 9 56 
62 0 7 17 34 44 84 58 31 78 53 90 
10 69 0 38 59 48 38 100 31 73 31 10 
35 49 23 0 46 58 46 74 77 1 29 57 
54 32 98 91 0 5 95 73 48 3 6 74 
53 55 74 73 52 0 89 13 46 33 82 40 
27 73 19 47 72 57 0 99 16 70 95 41 
32 67 29 31 14 5 59 0 72 69 21 98 
13 25 62 64 6 100 34 45 0 93 75 11 
98 39 70 82 46 93 84 56 67 0 78 88 
22 6 40 43 71 81 76 15 76 24 0 10 
31 11 74 8 48 26 85 25 11 14 56 0 
